unsat
(:SPACER-cluster-out-of-gas           24
 :SPACER-concretize                   205
 :SPACER-conj                         18
 :SPACER-expand-pob-undef             43
 :SPACER-inductive-gen                389
 :SPACER-inductive-gen-weaken-fail    652
 :SPACER-inductive-gen-weaken-success 67
 :SPACER-inductive-level              9
 :SPACER-max-depth                    14
 :SPACER-max-query-lvl                14
 :SPACER-non-local-gen                39
 :SPACER-num-active-lemmas            70
 :SPACER-num-ctp-blocked              104
 :SPACER-num-invariants               172
 :SPACER-num-is_invariant             1901
 :SPACER-num-lemma-jumped             30
 :SPACER-num-lemmas                   327
 :SPACER-num-non-lin                  165
 :SPACER-num-pobs                     443
 :SPACER-num-propagations             1466
 :SPACER-num-queries                  242
 :SPACER-num-reach-queries            76
 :SPACER-num-reuse-reach-facts        67
 :SPACER-pob-out-of-gas               7
 :SPACER-subsume-failed               2
 :SPACER-subsume-pob                  23
 :SPACER-subsume-success              25
 :added-eqs                           519998
 :arith-assert-diseq                  190130
 :arith-assert-lower                  817786
 :arith-assert-upper                  879008
 :arith-bound-prop                    129274
 :arith-branch-var                    184
 :arith-conflicts                     1994
 :arith-eq-adapter                    41560
 :arith-fixed-eqs                     155056
 :arith-gcd-conflicts                 10
 :arith-gcd-tests                     8148
 :arith-gomory-cuts                   92
 :arith-ineq-splits                   184
 :arith-num-rows                      584
 :arith-offset-eqs                    125678
 :arith-patches                       330
 :arith-patches_succ                  48
 :arith-pivots                        18696
 :arith-row-summations                1585288
 :arith-tableau-max-columns           828
 :arith-tableau-max-rows              584
 :conflicts                           10262
 :decisions                           1440626
 :del-clause                          126984
 :final-checks                        3468
 :iuc_solver.num_proxies              1387
 :max-memory                          119.85
 :memory                              115.31
 :minimized-lits                      2754
 :mk-bool-var                         130228
 :mk-clause                           246058
 :num-allocs                          51226102574.00
 :num-checks                          9000
 :pool_solver.checks                  4500
 :pool_solver.checks.sat              1250
 :pool_solver.checks.undef            339
 :propagations                        6285996
 :rlimit-count                        32422265
 :time                                13.12
 :time.iuc_solver.get_iuc             0.53
 :time.iuc_solver.get_iuc.hyp_reduce1 0.18
 :time.iuc_solver.get_iuc.hyp_reduce2 0.27
 :time.iuc_solver.get_iuc.learn_core  0.08
 :time.pool_solver.proof              0.10
 :time.pool_solver.smt.total          9.72
 :time.pool_solver.smt.total.sat      5.18
 :time.pool_solver.smt.total.undef    1.01
 :time.spacer.ctp                     0.21
 :time.spacer.init_rules              0.00
 :time.spacer.mbp                     0.08
 :time.spacer.solve                   12.99
 :time.spacer.solve.propagate         4.12
 :time.spacer.solve.reach             8.87
 :time.spacer.solve.reach.children    0.25
 :time.spacer.solve.reach.cluster     0.57
 :time.spacer.solve.reach.gen.global  0.68
 :time.spacer.solve.reach.gen.ind     3.18
 :time.spacer.solve.reach.is-reach    0.12)
(:max-memory   119.85
 :memory       115.31
 :num-allocs   51226102574.00
 :rlimit-count 32422265
 :time         13.12
 :total-time   13.13)
